# Solution for model GasLib-40
# Objective value = 8.3714170599113757e+01
loadshed[innode_1] 0
loadshed[innode_2] 0
loadshed[innode_3] 0
loadshed[innode_4] 0
loadshed[innode_5] 0
loadshed[innode_6] 0
loadshed[innode_7] 0
loadshed[innode_8] 0
loadshed[source_1] -2.4760298641107736e-02
loadshed[source_2] 1.2843501216698727e-01
loadshed[source_3] 4.2585924501880956e-01
loadshed[sink_1] 1
loadshed[sink_2] 0
loadshed[sink_3] 0
loadshed[sink_4] 0
loadshed[sink_5] 0
loadshed[sink_6] 0
loadshed[sink_7] 0
loadshed[sink_8] 0
loadshed[sink_9] 1
loadshed[sink_10] 0
loadshed[sink_11] 0
loadshed[sink_12] 1
loadshed[sink_13] 0
loadshed[sink_14] 0
loadshed[sink_15] 0
loadshed[sink_16] 0
loadshed[sink_17] 0
loadshed[sink_18] 0.0096549992941582
loadshed[sink_19] 0
loadshed[sink_20] 0
loadshed[sink_21] 1
loadshed[sink_22] 1.6613317992195470e-01
loadshed[sink_23] 0
loadshed[sink_24] 9.4304008671695749e-01
loadshed[sink_25] 0
loadshed[sink_26] 0
loadshed[sink_27] 0
loadshed[sink_28] 0
loadshed[sink_29] 0
flow[source_1,sink_3] 1.6200464026781123e+02
flow[innode_1,sink_16] 1.6354166666666970e+01
flow[innode_6,sink_13] 2.3713095228160764e+01
flow[sink_13,sink_14] 7.3589285614940962e+00
flow[sink_14,sink_10] -8.9952381051723478e+00
flow[sink_25,sink_26] 1.6354166666666970e+01
flow[sink_26,sink_9] 0
flow[sink_9,sink_18] 0
flow[sink_26,sink_4] 0
flow[sink_4,sink_20] -6.3256158840462987e+01
flow[sink_18,sink_6] -1.6196267199042090e+01
flow[sink_25,innode_8] -1.2929630693447484e+02
flow[sink_6,sink_7] -4.6187630819068488e+01
flow[sink_6,sink_22] 13.6371969533597
flow[sink_7,sink_24] 9.3153191514976053e-01
flow[sink_22,sink_1] 0
flow[sink_24,sink_21] 0
flow[sink_21,sink_12] 0
flow[sink_7,sink_5] -6.3473329400884893e+01
flow[sink_5,sink_17] -7.9827496067551564e+01
flow[sink_17,sink_4] -4.6901992173796316e+01
flow[sink_17,sink_8] -4.9279670560421906e+01
flow[sink_3,sink_23] 16.3541666666697
flow[sink_8,sink_20] -6.5633837227088577e+01
flow[sink_25,sink_20] 1.4524416273421832e+02
flow[sink_25,sink_15] -72.3692843612386
flow[sink_15,sink_29] -5.0980379470515253e+01
flow[sink_29,sink_28] 1.6354166666667879e+01
flow[sink_29,sink_2] 5.4097238224056682e+01
flow[sink_2,sink_15] 3.7743071557390017e+01
flow[sink_29,innode_7] -1.3778595102790649e+02
flow[innode_4,sink_19] 9.0766071438519447e+01
flow[sink_19,innode_3] 2.8331931133745140e+01
flow[innode_4,innode_5] 0
flow[sink_27,innode_5] 0
flow[sink_27,sink_19] -1.6354166666679703e+01
flow[sink_10,sink_11] 3.2708333333333641e+01
flow[sink_10,innode_2] -2.9725806971427925e+01
flow[sink_10,innode_3] -2.8331931133745140e+01
flow[innode_6,sink_25] -2.3713095228160764e+01
flow[sink_11,innode_1] 1.6354166666666970e+01
flow[sink_19,innode_2] 2.9725806971427925e+01
flow[source_3,innode_4] 9.0766071438519447e+01
flow[source_2,innode_7] 1.3778595102790649e+02
flow[sink_3,innode_8] 1.2929630693447484e+02
pressure[innode_1] 7.5613252195110192e+01
pressure[innode_2] 7.7336085172757407e+01
pressure[innode_3] 77.2733473195049
pressure[innode_4] 81.01325
pressure[innode_5] 76.9849551756139
pressure[innode_6] 7.5483387131636078e+01
pressure[innode_7] 81.01325
pressure[innode_8] 8.0471730375600487e+01
pressure[source_1] 81.01325
pressure[source_2] 81.01325
pressure[source_3] 81.01325
pressure[sink_1] 1.0132500000000002e+00
pressure[sink_2] 7.5957671489194809e+01
pressure[sink_3] 8.0471730375600487e+01
pressure[sink_4] 3.6216856902656829e+01
pressure[sink_5] 2.8477845968994924e+01
pressure[sink_6] 1.4457385568390839e+00
pressure[sink_7] 2.0797846333359908e+00
pressure[sink_8] 3.6283867411993590e+01
pressure[sink_9] 1.01325
pressure[sink_10] 7.5764953502713738e+01
pressure[sink_11] 7.5613252195110192e+01
pressure[sink_12] 1.01325
pressure[sink_13] 7.5352660800469579e+01
pressure[sink_14] 7.5339491370966684e+01
pressure[sink_15] 7.5834448678998911e+01
pressure[sink_16] 7.4591602360292512e+01
pressure[sink_17] 3.4424417416312941e+01
pressure[sink_18] 1.0132499999999507e+00
pressure[sink_19] 7.7336085172757407e+01
pressure[sink_20] 4.0857622840279234e+01
pressure[sink_21] 1.01325
pressure[sink_22] 1.0132500000000002e+00
pressure[sink_23] 80.3070123639407
pressure[sink_24] 1.01325
pressure[sink_25] 7.5483387131636078e+01
pressure[sink_26] 7.4331572777572191e+01
pressure[sink_27] 76.9849551756139
pressure[sink_28] 7.7032733312229325e+01
pressure[sink_29] 77.3280155858465
interdiction[source_1,sink_3] 0
interdiction[innode_1,sink_16] 0
interdiction[innode_6,sink_13] 0
interdiction[sink_13,sink_14] 0
interdiction[sink_14,sink_10] 0
interdiction[sink_25,sink_26] 0
interdiction[sink_26,sink_9] 1
interdiction[sink_9,sink_18] 0
interdiction[sink_26,sink_4] 1
interdiction[sink_4,sink_20] 0
interdiction[sink_18,sink_6] 0
interdiction[sink_25,innode_8] 0
interdiction[sink_6,sink_7] 0
interdiction[sink_6,sink_22] 0
interdiction[sink_7,sink_24] 0
interdiction[sink_22,sink_1] 0
interdiction[sink_24,sink_21] 0
interdiction[sink_21,sink_12] 0
interdiction[sink_7,sink_5] 0
interdiction[sink_5,sink_17] 0
interdiction[sink_17,sink_4] 0
interdiction[sink_17,sink_8] 0
interdiction[sink_3,sink_23] 0
interdiction[sink_8,sink_20] 0
interdiction[sink_25,sink_20] 0
interdiction[sink_25,sink_15] 0
interdiction[sink_15,sink_29] 0
interdiction[sink_29,sink_28] 0
interdiction[sink_29,sink_2] 0
interdiction[sink_2,sink_15] 0
interdiction[sink_29,innode_7] 0
interdiction[innode_4,sink_19] 0
interdiction[sink_19,innode_3] 0
interdiction[innode_4,innode_5] 1
interdiction[sink_27,innode_5] 0
interdiction[sink_27,sink_19] 0
interdiction[sink_10,sink_11] 0
interdiction[sink_10,innode_2] 0
interdiction[sink_10,innode_3] 0
interdiction[innode_6,sink_25] 0
interdiction[sink_11,innode_1] 0
interdiction[sink_19,innode_2] 0
interdiction[source_3,innode_4] 0
interdiction[source_2,innode_7] 0
interdiction[sink_3,innode_8] 0
WCcheckFlow[source_1,sink_3] 39
WCcheckFlow[innode_1,sink_16] 1
WCcheckFlow[innode_6,sink_13] 13
WCcheckFlow[sink_13,sink_14] 12
WCcheckFlow[sink_14,sink_10] 11
WCcheckFlow[sink_25,sink_26] 1
WCcheckFlow[sink_26,sink_9] 0
WCcheckFlow[sink_9,sink_18] -1
WCcheckFlow[sink_26,sink_4] 0
WCcheckFlow[sink_4,sink_20] -13
WCcheckFlow[sink_18,sink_6] -2
WCcheckFlow[sink_25,innode_8] -36
WCcheckFlow[sink_6,sink_7] -5
WCcheckFlow[sink_6,sink_22] 2
WCcheckFlow[sink_7,sink_24] 3
WCcheckFlow[sink_22,sink_1] 1
WCcheckFlow[sink_24,sink_21] 2
WCcheckFlow[sink_21,sink_12] 1
WCcheckFlow[sink_7,sink_5] -9
WCcheckFlow[sink_5,sink_17] -10
WCcheckFlow[sink_17,sink_4] -12
WCcheckFlow[sink_17,sink_8] 1
WCcheckFlow[sink_3,sink_23] 1
WCcheckFlow[sink_8,sink_20] 0
WCcheckFlow[sink_25,sink_20] 14
WCcheckFlow[sink_25,sink_15] 6
WCcheckFlow[sink_15,sink_29] 5
WCcheckFlow[sink_29,sink_28] 1
WCcheckFlow[sink_29,sink_2] 1
WCcheckFlow[sink_2,sink_15] 0
WCcheckFlow[sink_29,innode_7] 2
WCcheckFlow[innode_4,sink_19] -2
WCcheckFlow[sink_19,innode_3] -5
WCcheckFlow[innode_4,innode_5] 0
WCcheckFlow[sink_27,innode_5] 1
WCcheckFlow[sink_27,sink_19] -2
WCcheckFlow[sink_10,sink_11] 3
WCcheckFlow[sink_10,innode_2] 1
WCcheckFlow[sink_10,innode_3] 6
WCcheckFlow[innode_6,sink_25] -14
WCcheckFlow[sink_11,innode_1] 2
WCcheckFlow[sink_19,innode_2] 0
WCcheckFlow[source_3,innode_4] -1
WCcheckFlow[source_2,innode_7] -1
WCcheckFlow[sink_3,innode_8] 37
